
******************************************************************************
This program contains Ipopt, a library for large-scale nonlinear optimization.
 Ipopt is released as open source code under the Eclipse Public License (EPL).
         For more information visit http://projects.coin-or.org/Ipopt
******************************************************************************

This is Ipopt version 3.12.13, running with linear solver mumps.
NOTE: Other linear solvers might be more efficient (see Ipopt documentation).

Number of nonzeros in equality constraint Jacobian...:      371
Number of nonzeros in inequality constraint Jacobian.:      118
Number of nonzeros in Lagrangian Hessian.............:      143

Total number of variables............................:       86
                     variables with only lower bounds:       16
                variables with lower and upper bounds:       42
                     variables with only upper bounds:        0
Total number of equality constraints.................:       78
Total number of inequality constraints...............:       32
        inequality constraints with only lower bounds:        0
   inequality constraints with lower and upper bounds:        0
        inequality constraints with only upper bounds:       32

iter    objective    inf_pr   inf_du lg(mu)  ||d||  lg(rg) alpha_du alpha_pr  ls
   0  3.0287411e+02 3.09e+00 1.00e+02   0.0 0.00e+00    -  0.00e+00 0.00e+00   0
   1  3.0287406e+02 3.09e+00 1.00e+02  -0.5 2.27e+03    -  3.64e-06 7.84e-08f  3
   2  3.0287371e+02 3.09e+00 2.05e+05   1.5 4.87e+04    -  2.58e-04 2.84e-08f  2
   3  3.0287286e+02 3.09e+00 3.06e+07   3.2 9.69e+03    -  1.65e-04 2.91e-07f  2
   4  3.0287314e+02 3.09e+00 3.00e+07   3.6 8.88e+05    -  2.03e-08 1.12e-07f  2
   5  3.0287316e+02 3.09e+00 3.03e+07   1.5 1.34e+06    -  1.05e-07 7.53e-09f  5
   6r 3.0287316e+02 3.09e+00 1.00e+03   1.5 0.00e+00    -  0.00e+00 5.79e-08R  2
   7r 3.0342948e+02 2.50e+00 3.89e+03   0.4 8.94e+00    -  3.04e-01 5.29e-01f  1
   8r 3.0331277e+02 2.45e+00 3.70e+03  -0.2 2.13e+00    -  9.73e-01 4.03e-01f  1
   9r 3.0167721e+02 2.29e+00 4.64e+02  -0.1 5.59e+00    -  9.93e-01 8.89e-01f  1
iter    objective    inf_pr   inf_du lg(mu)  ||d||  lg(rg) alpha_du alpha_pr  ls
  10r 3.0102380e+02 2.40e+00 5.28e+02  -0.8 5.68e+00    -  1.00e+00 9.77e-01f  1
  11r 3.0094754e+02 2.46e+00 3.67e+02  -1.5 1.80e+00    -  1.00e+00 1.00e+00f  1
  12r 3.0181581e+02 2.72e+00 3.30e+01  -2.2 1.73e+00    -  1.00e+00 9.65e-01f  1
  13r 3.0254511e+02 2.89e+00 6.82e+00  -3.0 1.91e+00    -  1.00e+00 1.00e+00f  1
  14r 3.0282707e+02 3.06e+00 3.49e-02  -3.6 9.21e-01    -  1.00e+00 1.00e+00f  1
  15r 3.0286701e+02 3.09e+00 3.68e+01  -4.9 1.42e-01    -  1.00e+00 8.84e-01f  1
  16r 3.0287281e+02 3.09e+00 7.36e-01  -5.1 8.23e-02    -  1.00e+00 9.98e-01f  1
  17r 3.0287377e+02 3.09e+00 2.35e-01  -6.2 9.18e-02    -  1.00e+00 9.99e-01f  1
  18r 3.0287381e+02 3.09e+00 7.98e+01  -6.8 3.17e-02    -  1.00e+00 6.07e-01f  1
  19r 3.0287383e+02 3.09e+00 3.25e+02  -7.4 1.04e-02    -  1.00e+00 4.43e-01f  1
iter    objective    inf_pr   inf_du lg(mu)  ||d||  lg(rg) alpha_du alpha_pr  ls
  20r 3.0287384e+02 3.09e+00 2.88e+02  -7.4 5.32e-03    -  1.00e+00 5.25e-01f  1
  21r 3.0287385e+02 3.09e+00 9.96e-06  -8.0 1.62e-04    -  1.00e+00 1.00e+00f  1
  22r 3.0287386e+02 3.09e+00 7.57e-06  -9.0 2.75e-04    -  1.00e+00 1.00e+00f  1

Number of Iterations....: 22

                                   (scaled)                 (unscaled)
Objective...............:   6.0574771030334887e+01    3.0287385515167443e+02
Dual infeasibility......:   1.0000000099960378e+02    5.0000000499801894e+02
Constraint violation....:   1.0510324903825647e+00    3.0932512154348886e+00
Complementarity.........:   1.0019839233982134e-09    5.0099196169910672e-09
Overall NLP error.......:   3.4067894222952368e+01    5.0000000499801894e+02


Number of objective function evaluations             = 35
Number of objective gradient evaluations             = 8
Number of equality constraint evaluations            = 35
Number of inequality constraint evaluations          = 35
Number of equality constraint Jacobian evaluations   = 25
Number of inequality constraint Jacobian evaluations = 25
Number of Lagrangian Hessian evaluations             = 23
Total CPU secs in IPOPT (w/o function evaluations)   =      0.016
Total CPU secs in NLP function evaluations           =      0.002

EXIT: Converged to a point of local infeasibility. Problem may be infeasible.
